NAME /Users/henri/Research/solvers/instances/idol-instances/robust/collection/cbp_Subramanyam_et_al_2020/CapBud_N10_12/models/uncertain_technology_matrix/
ROWS
 N  OBJ
 L  capacity
 L  c_845
 L  c_846
 L  c_847
 L  c_848
 L  c_849
 L  c_850
 L  c_851
 L  c_852
 L  c_853
 L  c_854
COLUMNS
    MARKER    'MARKER'                 'INTORG'
    x_0        OBJ        -8.30948
    x_0        c_845      1
    x_0        capacity   1.6619
    x_1        OBJ        -0.691848
    x_1        c_846      1
    x_1        capacity   0.13837
    x_2        OBJ        -8.66703
    x_2        c_847      1
    x_2        capacity   1.73341
    x_3        OBJ        -4.18363
    x_3        c_848      1
    x_3        capacity   0.836727
    x_4        OBJ        -9.24825
    x_4        c_849      1
    x_4        capacity   1.84965
    x_5        OBJ        -6.42279
    x_5        c_850      1
    x_5        capacity   1.28456
    x_6        OBJ        -5.16363
    x_6        c_851      1
    x_6        capacity   1.03273
    x_7        OBJ        -5.67241
    x_7        c_852      1
    x_7        capacity   1.13448
    x_8        OBJ        -5.36456
    x_8        c_853      1
    x_8        capacity   1.07291
    x_9        OBJ        -1.3677
    x_9        c_854      1
    x_9        capacity   0.27354
    y_0        OBJ        -6.64759
    y_0        c_845      1
    y_0        capacity   1.6619
    y_1        OBJ        -0.553478
    y_1        c_846      1
    y_1        capacity   0.13837
    y_2        OBJ        -6.93362
    y_2        c_847      1
    y_2        capacity   1.73341
    y_3        OBJ        -3.34691
    y_3        c_848      1
    y_3        capacity   0.836727
    y_4        OBJ        -7.3986
    y_4        c_849      1
    y_4        capacity   1.84965
    y_5        OBJ        -5.13823
    y_5        c_850      1
    y_5        capacity   1.28456
    y_6        OBJ        -4.13091
    y_6        c_851      1
    y_6        capacity   1.03273
    y_7        OBJ        -4.53792
    y_7        c_852      1
    y_7        capacity   1.13448
    y_8        OBJ        -4.29165
    y_8        c_853      1
    y_8        capacity   1.07291
    y_9        OBJ        -1.09416
    y_9        c_854      1
    y_9        capacity   0.27354
    MARKER    'MARKER'                 'INTEND'
RHS
    RHS       capacity   27.5457
    RHS       c_845      1
    RHS       c_846      1
    RHS       c_847      1
    RHS       c_848      1
    RHS       c_849      1
    RHS       c_850      1
    RHS       c_851      1
    RHS       c_852      1
    RHS       c_853      1
    RHS       c_854      1
BOUNDS
 LI BND       x_0        0
 UI BND       x_0        1
 LI BND       x_1        0
 UI BND       x_1        1
 LI BND       x_2        0
 UI BND       x_2        1
 LI BND       x_3        0
 UI BND       x_3        1
 LI BND       x_4        0
 UI BND       x_4        1
 LI BND       x_5        0
 UI BND       x_5        1
 LI BND       x_6        0
 UI BND       x_6        1
 LI BND       x_7        0
 UI BND       x_7        1
 LI BND       x_8        0
 UI BND       x_8        1
 LI BND       x_9        0
 UI BND       x_9        1
 LI BND       y_0        0
 UI BND       y_0        1
 LI BND       y_1        0
 UI BND       y_1        1
 LI BND       y_2        0
 UI BND       y_2        1
 LI BND       y_3        0
 UI BND       y_3        1
 LI BND       y_4        0
 UI BND       y_4        1
 LI BND       y_5        0
 UI BND       y_5        1
 LI BND       y_6        0
 UI BND       y_6        1
 LI BND       y_7        0
 UI BND       y_7        1
 LI BND       y_8        0
 UI BND       y_8        1
 LI BND       y_9        0
 UI BND       y_9        1
ENDATA
